11570.94,52.56,65.21
10502.29,57.91,71.84
11643.81,52.24,64.8
10278.22,59.18,73.41
12177.85,49.95,61.96
10360.34,58.71,72.82
10857.48,56.02,69.49
11429.07,53.22,66.02
10488.62,57.99,71.93
11257.74,54.03,67.02
11821.43,51.45,63.82
11031.29,55.14,68.4
11024.46,55.17,68.44
10257.26,59.3,73.56
10365.43,58.68,72.79
11379.92,53.45,66.3
10813.43,56.25,69.77
10305.86,59.02,73.21
10334.53,58.85,73.01
11469.26,53.03,65.78
